
Log started (V12.8.0.0) Wed Aug 29 20:12:43 2018

New value for time limit in seconds: 500
CPXPARAM_TimeLimit                               500
CPXPARAM_Emphasis_Numerical                      1
CPXPARAM_Parallel                                -1
CPXPARAM_Benders_Strategy                        3
CPXPARAM_MIP_Tolerances_Integrality              9.9999999999999995e-08
CPXPARAM_MIP_Pool_AbsGap                         0
Tried aggregator 4 times.
MIP Presolve eliminated 8936 rows and 4212 columns.
MIP Presolve added 236 rows and 0 columns.
MIP Presolve modified 52 coefficients.
Aggregator did 1862 substitutions.
Reduced MIP has 5612 rows, 4947 columns, and 20280 nonzeros.
Reduced MIP has 258 binaries, 0 generals, 0 SOSs, and 0 indicators.
Presolve time = 0.02 sec. (25.63 ticks)
Found incumbent of value 6.601451 after 0.04 sec. (45.56 ticks)
Tried aggregator 2 times.
MIP Presolve eliminated 240 rows and 0 columns.
MIP Presolve added 236 rows and 0 columns.
MIP Presolve modified 18 coefficients.
Aggregator did 2 substitutions.
Reduced MIP has 5606 rows, 4945 columns, and 20266 nonzeros.
Reduced MIP has 256 binaries, 0 generals, 0 SOSs, and 0 indicators.
Presolve time = 0.01 sec. (9.90 ticks)

        Nodes                                         Cuts/
   Node  Left     Objective  IInf  Best Integer    Best Bound    ItCnt     Gap

      0     0      110.0000                       Benders: 10        0         
      0     0      110.0000                        Benders: 1        1         
      0     0      110.0000                        Benders: 4        3         
      0     0      110.0000                        Benders: 1        6         
Tried aggregator 1 time.
MIP Presolve eliminated 232 rows and 0 columns.
MIP Presolve modified 269 coefficients.
Reduced MIP has 258 rows, 266 columns, and 926 nonzeros.
Reduced MIP has 256 binaries, 0 generals, 0 SOSs, and 0 indicators.
Presolve time = 0.00 sec. (1.14 ticks)
Probing time = 0.00 sec. (0.62 ticks)
Tried aggregator 1 time.
Reduced MIP has 258 rows, 266 columns, and 926 nonzeros.
Reduced MIP has 256 binaries, 0 generals, 0 SOSs, and 0 indicators.
Presolve time = 0.00 sec. (0.64 ticks)
Probing time = 0.00 sec. (0.62 ticks)
Clique table members: 741.
MIP emphasis: balance optimality and feasibility.
MIP search method: dynamic search.
Parallel mode: opportunistic, using up to 8 threads.
Root relaxation solution time = 0.00 sec. (0.32 ticks)
*     0+    0                           12.3003      110.0000           794.28%
      0     0      110.0000     4       12.3003      110.0000       25  794.28%
      0     0      110.0000     5       12.3003       Cuts: 2       27  794.28%
      0     0      110.0000     4       12.3003       Cuts: 3       32  794.28%
      0     0      110.0000     4       12.3003       Cuts: 3       33  794.28%

Repeating presolve.
Tried aggregator 1 time.
MIP Presolve modified 38 coefficients.
Reduced MIP has 258 rows, 266 columns, and 926 nonzeros.
Reduced MIP has 256 binaries, 0 generals, 0 SOSs, and 0 indicators.
Presolve time = 0.00 sec. (0.66 ticks)
Probing time = 0.00 sec. (0.58 ticks)
Tried aggregator 1 time.
Reduced MIP has 258 rows, 266 columns, and 926 nonzeros.
Reduced MIP has 256 binaries, 0 generals, 0 SOSs, and 0 indicators.
Presolve time = 0.00 sec. (0.65 ticks)
Represolve time = 0.00 sec. (3.05 ticks)
Probing time = 0.00 sec. (0.58 ticks)
Clique table members: 741.
MIP emphasis: balance optimality and feasibility.
MIP search method: dynamic search.
Parallel mode: opportunistic, using up to 8 threads.
Root relaxation solution time = 0.00 sec. (0.65 ticks)
*     0+    0                           12.3003      110.0000           794.28%
      0     0      110.0000     2       12.3003      110.0000       58  794.28%
*     0+    0                           56.8974      110.0000            93.33%
      0     0      110.0000    11       56.8974       Cuts: 3       76   93.33%
*     0+    0                           62.1594      110.0000            76.96%
      0     2      110.0000     4       62.1594     Cuts: 202       76   76.96%
Elapsed time = 1.49 sec. (1281.00 ticks, tree = 0.01 MB, solutions = 1)
     80    28        cutoff            107.3250      110.0000      251    2.49%
     80    35        cutoff            107.3250      110.0000      481    2.49%
    334    42        cutoff            107.3250      110.0000     1100    2.49%
    820   261      109.1883     7      107.3250      110.0000     6421    2.49%
   1545    55      108.4120    21      107.3250      109.5543    16063    2.08%
   2116    46        cutoff            107.3250      108.4037    15674    1.01%

Benders cuts applied:  1258
Cover cuts applied:  4
Mixed integer rounding cuts applied:  3
Gomory fractional cuts applied:  6

Root node processing (before b&c):
  Real time             =    1.25 sec. (1259.79 ticks)
Parallel b&c, 8 threads:
  Real time             =    1.99 sec. (1319.25 ticks)
  Sync time (average)   =    0.32 sec.
  Wait time (average)   =    0.01 sec.
                          ------------
Total (root+branch&cut) =    3.23 sec. (2579.04 ticks)

Solution pool: 1 solution saved.

MIP - Integer optimal, tolerance (0.0001/1e-06):  Objective =  1.0732504145e+02
Current MIP best bound =  1.0733453272e+02 (gap = 0.00949127, 0.01%)
Solution time =    3.24 sec.  Iterations = 17103  Nodes = 2188 (1)
Deterministic time = 2579.89 ticks  (797.48 ticks/sec)


Solution pool written to file 'lsgcp_a7_b1_n1.sol'.
Current MIP best bound =  1.0733453272e+02 (gap = 0.00949127, 0.01%)
